c This Formular is generated by mcnf
c
c    horn? no 
c    forced? no 
c    mixed sat? no 
c    clause length = 3 
c
p cnf 20  91 
-3 17 19 0
8 -20 -6 0
-16 10 -2 0
-15 -9 19 0
3 -7 4 0
-12 3 -4 0
-11 -2 -6 0
3 12 9 0
2 -8 16 0
20 7 16 0
-9 -4 15 0
-20 -8 11 0
6 4 -20 0
